NAME : portgen-32-51
COMMENT : portgen N=32, seed=51
TYPE : TSP
DIMENSION : 32
EDGE_WEIGHT_TYPE : EUC_2D
NODE_COORD_SECTION
1 787468 493862
2 836582 154310
3 285678 140859
4 158517 517439
5 717378 644284
6 871500 284800
7 207016 583491
8 976068 377794
9 86304 809342
10 950554 279772
11 767866 631312
12 306915 897139
13 651578 694942
14 650819 522638
15 698624 6022
16 934607 550965
17 765888 585946
18 839121 977900
19 564460 54112
20 880817 279043
21 291803 916350
22 886187 450267
23 319599 824258
24 591591 363299
25 20959 79345
26 418216 543905
27 495761 107458
28 89098 236503
29 727974 250635
30 315189 307777
31 576399 104405
32 636622 438335
